(set-logic QF_FP)
(set-info :source |Random FP created by PyMPF|)
(set-info :category random)
(set-info :status unsat)
(declare-const x Float32)
(assert (= x (fp #b1 #b00000000 #b01010100010000111110011)))
(declare-const y Float32)
(assert (= y (_ -oo 8 24)))
(declare-const z Float32)
(assert (= z ((_ to_fp 8 24) #xC9053108)))
(declare-const result Float32)
(assert (= result (fp.fma RNE x y z)))
(assert (not (= result (_ +oo 8 24))))
(check-sat)
(exit)
